40
1 0 2
2 0 5
3 0 2
3 1 7
3 2 7
4 0 1
4 2 4
4 3 3
5 4 7
6 1 7
6 2 5
6 4 7
6 5 7
7 0 1
7 2 6
7 3 1
7 4 5
7 5 5
7 6 4
8 1 5
8 4 4
8 5 4
9 1 7
9 2 4
9 3 1
9 4 4
9 8 6
10 0 2
10 1 1
10 2 5
10 4 5
10 5 7
10 6 4
10 7 6
10 9 5
11 0 5
11 3 6
11 4 3
11 7 3
11 9 4
11 10 7
12 2 5
12 3 2
12 4 2
12 5 2
12 7 5
12 11 5
13 1 2
13 4 4
14 1 3
14 2 7
14 8 2
14 9 6
14 11 6
14 12 4
15 1 7
15 3 7
15 4 3
15 7 1
15 10 3
15 12 1
15 13 6
16 1 4
16 4 3
16 5 2
16 6 4
16 7 2
16 8 6
16 12 5
16 13 3
16 14 5
17 3 7
17 4 5
17 7 5
17 8 5
17 10 7
17 13 4
17 15 2
18 3 3
18 4 5
18 5 5
18 7 1
18 8 2
18 12 7
18 15 2
18 17 7
19 0 7
19 4 3
19 6 4
19 9 4
19 11 4
19 13 6
19 14 3
19 15 3
19 16 3
20 1 6
20 3 7
20 4 7
20 6 3
20 9 2
20 12 1
20 15 7
20 16 6
20 17 2
20 18 1
20 19 1
21 0 2
21 1 1
21 4 2
21 7 1
21 8 2
21 9 5
21 11 5
21 15 3
21 16 4
21 17 2
21 18 4
21 20 3
22 1 6
22 4 4
22 5 2
22 8 3
22 9 5
22 10 4
22 11 2
22 12 2
22 13 6
22 14 5
22 16 6
22 19 4
22 20 4
22 21 4
23 0 6
23 1 6
23 2 2
23 4 7
23 7 1
23 8 5
23 9 1
23 11 7
23 12 1
23 13 2
23 14 6
23 17 6
23 18 1
23 20 6
23 21 2
23 22 6
24 1 1
24 2 4
24 3 4
24 4 5
24 8 2
24 9 4
24 11 1
24 14 7
24 16 1
24 18 4
24 19 1
24 20 4
25 0 1
25 3 2
25 4 6
25 5 4
25 6 6
25 10 5
25 11 2
25 12 6
25 14 5
25 16 2
25 21 1
25 22 6
25 23 1
26 3 3
26 5 6
26 7 3
26 9 6
26 10 7
26 11 6
26 12 7
26 13 3
26 22 3
26 23 1
26 24 2
27 1 7
27 2 6
27 3 2
27 6 4
27 9 2
27 10 3
27 14 3
27 16 2
27 18 5
27 19 6
27 20 7
27 22 7
27 23 5
27 24 4
27 25 5
28 0 3
28 1 1
28 2 5
28 3 5
28 7 2
28 8 4
28 9 1
28 13 5
28 15 1
28 16 1
28 18 7
28 22 5
28 23 1
28 24 1
28 25 6
28 26 7
29 1 5
29 2 6
29 4 5
29 5 1
29 7 3
29 8 3
29 9 5
29 11 5
29 12 1
29 13 4
29 14 1
29 17 3
29 18 5
29 19 6
29 21 4
29 27 3
30 0 4
30 1 1
30 4 6
30 5 6
30 6 2
30 7 1
30 11 5
30 12 6
30 15 1
30 19 3
30 22 4
30 25 6
30 26 6
30 27 2
30 28 6
30 29 7
31 1 5
31 8 2
31 9 1
31 10 1
31 11 7
31 12 1
31 13 1
31 14 6
31 15 1
31 16 1
31 22 2
31 24 3
31 26 7
31 27 4
31 29 6
31 30 7
32 1 1
32 3 7
32 7 2
32 8 1
32 9 6
32 10 7
32 11 6
32 12 5
32 14 5
32 19 2
32 21 2
32 23 2
32 24 4
32 25 6
33 0 7
33 3 4
33 7 3
33 8 2
33 12 1
33 13 1
33 14 4
33 16 3
33 24 4
33 26 1
34 0 2
34 1 3
34 2 1
34 3 7
34 6 6
34 7 3
34 14 4
34 16 7
34 18 5
34 22 5
34 23 1
34 25 5
34 26 5
34 28 4
34 31 1
34 32 2
34 33 1
35 0 4
35 1 7
35 2 7
35 3 1
35 4 2
35 5 5
35 6 1
35 7 1
35 9 6
35 10 3
35 11 6
35 14 2
35 18 1
35 22 6
35 24 7
35 25 7
35 27 5
35 28 7
35 29 4
35 32 5
36 5 1
36 6 7
36 11 6
36 13 3
36 19 5
36 20 1
36 22 7
36 23 5
36 24 3
36 25 6
36 26 7
36 28 4
36 29 1
36 31 3
36 32 5
36 34 7
37 0 5
37 1 5
37 3 1
37 5 5
37 6 2
37 8 4
37 9 3
37 10 6
37 11 1
37 12 1
37 14 5
37 15 2
37 16 1
37 18 7
37 19 1
37 20 3
37 21 6
37 22 5
37 23 3
37 24 6
37 25 1
37 26 6
37 27 1
37 28 5
37 29 4
37 32 1
37 33 6
38 0 7
38 2 4
38 3 3
38 4 3
38 5 2
38 7 5
38 11 1
38 12 1
38 13 7
38 14 4
38 16 5
38 17 4
38 19 5
38 22 7
38 23 1
38 24 1
38 25 1
38 26 6
38 27 2
38 28 6
38 30 1
38 32 3
38 33 1
38 37 5
39 0 3
39 1 2
39 2 6
39 5 3
39 9 2
39 12 5
39 13 7
39 14 6
39 15 7
39 17 6
39 18 4
39 20 4
39 22 7
39 24 3
39 25 3
39 27 2
39 28 7
39 29 6
39 32 2
39 33 5
39 34 6
39 35 3
39 37 3
39 38 4
